sing20160118.00
TTAA 68001 48698
99008 26618 03501 00089 26018 34505 92775 22009 36004
85509 18423 30502 70156 10233 03505 50588 05901 08517
40760 13356 11518 30973 28960 13023 25100 39957 14025
20248 52558 14522 15428 67556 14521 10663 80157 19517
88999
77999=
TTCC 68005 48698
70862 76761 03517 50061 72168 24534
88824 86350 18003
77999=
TTDD 6800/ 48698
11824 86350 22783 81357 33734 82557 44685 73964 55660
72966 66640 73166 77604 68371 88517 72567 99467 69770
21212 11964 19521 22949 19022 33888 16015 44863 15512
55844 16510 66818 00000 77804 35510 88755 35529 99715
01523 11694 04013 22690 04010 33680 33003 44666 28010
55641 25510 66581 26050 77503 25035 88468 25007 99467
25007=
